%chk=C:\Users\hx_ye\Downloads\H2MODEL_dist\Heisenberg\src\h2.chk
# scan rhf/3-3g

Title Card Required

0 1
 H                 0.00000000    0.00000000    0.00000000
 H                 0.60000000    0.00000000    0.00000000


