%chk=CH4.chk
# hf/6-311g geom=connectivity

Title Card Required

0 1
 C                 -3.47107436   -3.18181813    0.00000000
 H                 -3.11441993   -4.19062814    0.00000000
 H                 -3.11440151   -2.67741994    0.87365150
 H                 -3.11440151   -2.67741994   -0.87365150
 H                 -4.54107436   -3.18180495    0.00000000

 1 2 1.0 3 1.0 4 1.0 5 1.0
 2
 3
 4
 5

