%chk=D:\G09W\hwjt\Excellent\H.chk
# hf/6-31g geom=connectivity

Title Card Required

0 2
 H                  0.00000000    0.00000000    0.00000000

 1

