% this file-format is called [Heisenberg Input file].hif
% 		, which is similiar to Gauss's <>.gjf file, but '%' stand for an annotation.
% 		so, certainly this program support the .gjf file, but ignore the chk setting.
% 
% the Heisenberg program now does't set .chk file, if it would one day, the annotation sign are plan
%		to substitute by '!'
# sp hf/6-311g geom=connectivity

Title Card Required

0 2
 H                  0.00000000    0.00000000    0.00000000

 1

