%chk=D:\G09W\hwjt\Excellent\H2.chk
# opt hf/6-31g geom=connectivity

Title Card Required

0 1
 H                 0.00000000    0.00000000    0.00000000
 H                 0.60000000    0.00000000    0.00000000

 1 2 1.0
 2

