%chk=H4.chk
# p hf/6-31g

Title

0 1
H  0.00 0.00 0.00
H  0.74 0.00 0.00
H  0.74 0.74 0.00
H  0.00 0.74 0.00


