%chk=D:\G09W\hwjt\Excellent\HeH.chk
# sp rhf/6-31g geom=connectivity

Title Card Required

1 1
 H                 0.00000000    0.00000000    0.00000000
 He                1.00000000   0.00000000    0.00000000

 1
 2

