%chk=D:\G09W\hwjt\test\CH4.chk
# sp rhf/6-311g geom=connectivity

Title Card Required

0 1
 C                 0.00000000	0.00000000   0.00000000
 H                 0.88911941   0.88911941   0.88911941
 H                 -0.88911941  -0.88911941   0.88911941
 H                 -0.88911941  0.88911941   -0.88911941
 H                 0.88911941   -0.88911941  -0.88911941

 1 2 1.0 3 1.0 4 1.0 5 1.0
 2
 3
 4
 5

